$https://teachinglondoncomputing.org/cut-hive-puzzles/

language ESSENCE' 1.0

letting height be 6
letting length be 7
letting numblocks be 9
letting blocks be 
[
    [1,1,1,5,0,0,0],
    [2,1,3,5,7,8,9],
    [2,3,3,5,7,8,9],
    [2,4,4,5,7,8,9],
    [0,4,4,6,6,0,0],
    [0,0,6,0,6,0,0]
]
letting fixed be
[
    [0,0,0,0,0,0,0],
    [0,0,1,4,0,0,0],
    [0,0,0,3,0,0,0],
    [0,2,0,0,0,0,0],
    [0,0,0,0,0,0,0],
    [0,0,4,0,0,0,0],
]